29
1 512 1450
2 791 1414
3 1587 1857
4 1027 1906
5 1831 1070
6 92 1265
7 88 1415
8 308 1588
9 563 2107
10 1873 1742
11 368 1530
12 1372 572
13 1191 2219
14 779 2178
15 470 1297
16 285 1240
17 879 585
18 1478 795
19 1340 1794
20 1205 922
21 1050 2168
22 1555 1772
23 1724 1166
24 607 2147
25 571 897
26 668 2169
27 780 1589
28 981 2218
29 41 1593
